54482 -1 34878 237211 54482 1
55498 -1 43305 270746 55498 1
55502 -1 31630 211542 55502 0.94
54852 -1 34081 207609 54852 1
55074 -1 52824 446681 55074 1
55428 -1 49450 299525 55428 0.96
56000 -1 40083 275288 56000 1
55942 -1 27000 198307 55942 1
56448 -1 34831 226251 56448 0.98
54778 -1 34898 231073 54778 0.96
